(set-logic ALL)
(declare-fun i1 () Int)
(declare-fun it321 () Int)
(declare-fun it322 () Int)
(declare-fun i2 () Int)
(declare-fun i3 () Int)
(declare-fun it323 () Int)
(declare-fun it324 () Int)
(declare-fun i4 () Int)
(declare-fun it325 () Int)
(declare-fun i5 () Int)
(declare-fun i6 () Int)
(declare-fun it326 () Int)
(declare-fun i7 () Int)
(declare-fun it327 () Int)
(declare-fun it429 () Int)
(declare-fun it430 () Int)
(declare-fun it431 () Int)
(declare-fun it432 () Int)
(declare-fun it433 () Int)
(declare-fun it434 () Int)
(declare-fun it435 () Int)
(declare-fun it436 () Int)
(declare-fun it437 () Int)
(declare-fun it438 () Int)
(declare-fun it439 () Int)
(declare-fun it440 () Int)
(declare-fun it441 () Int)
(declare-fun it442 () Int)
(declare-fun it443 () Int)
(declare-fun it444 () Int)
(declare-fun it445 () Int)
(declare-fun it446 () Int)
(declare-fun it447 () Int)
(declare-fun it448 () Int)
(declare-fun it449 () Int)
(declare-fun it109 () Int)
(assert (= (+ i1 (- 1)) 0))
(assert (= (+ it321 (- 2)) 0))
(assert (= (+ (* i2 (- 1)) it322 (- 1)) 0))
(assert (= (+ it323 (* i3 (- 1))) 0))
(assert (= (+ (* i4 (- 1)) it324) 0))
(assert (= (+ (* i5 (- 1)) it325) 0))
(assert (= (+ it326 (* i6 (- 1))) 0))
(assert (= (+ it327 (* i7 (- 1))) 0))
(assert (and (> it323 0) (> it326 0) (= (+ it321 (- 2)) 0)))
(assert (= (+ it429 (- 3)) 0))
(assert (= (+ (* it322 (- 1)) it430 (- 1)) 0))
(assert (= (+ (* it323 (- 1)) it431) 0))
(assert (= (+ (* it323 (- 1)) it432) 0))
(assert (= (+ (* it327 (- 1)) it433) 0))
(assert (= (+ (* it326 (- 1)) it434) 0))
(assert (= (+ (* it327 (- 1)) it435) 0))
(assert (let ((a!1 (< (+ (exp it434 5) (exp it432 2) (+ 0 (* it433 (- 1)))) (+ 0 0))))
  (and (> it432 0) a!1 (= (+ it429 (- 3)) 0))))
(assert (= (+ it436 (- 3)) 0))
(assert (= (+ it437 (* it430 (- 1)) (- 1)) 0))
(assert (= (+ (* it431 (- 1)) it438) 0))
(assert (= (+ (* it432 2) it439) 0))
(assert (= (+ (+ 0 it440) (* (exp it434 3) (+ 0 2)) (+ 0 (* it433 (- 3))))
   (+ 0 0)))
(assert (= (+ (* it434 (- 1)) it441) 0))
(assert (= (+ (* it435 (- 1)) it442) 0))
(assert (let ((a!1 (< (+ (+ 0 (* it440 (- 1))) (exp it439 2) (exp it441 5)) (+ 0 0))))
  (and (< it439 0) a!1 (= (+ it436 (- 3)) 0))))
(assert (= (+ it443 (- 3)) 0))
(assert (= (+ (* it437 (- 1)) it444 (- 1)) 0))
(assert (= (+ (* it438 (- 1)) it445) 0))
(assert (= (+ it446 (* it439 2)) 0))
(assert (= (+ (+ 0 (* it440 (- 3))) (* (exp it441 3) (+ 0 2)) (+ 0 it447))
   (+ 0 0)))
(assert (= (+ (* it441 (- 1)) it448) 0))
(assert (= (+ (* it442 (- 1)) it449) 0))
(assert (let ((a!1 (* (exp it446 2) (exp (exp 4 (+ it109 (- 1))) (+ 0 2))))
      (a!2 (* (* (exp 9 (+ it109 (- 1))) (exp it448 3)) (+ 0 (- 1))))
      (a!4 (> (+ (* (exp it448 5) (+ 0 (- 1)))
                 (+ 0 it447)
                 (* (exp it446 2) (+ 0 (- 1))))
              (+ 0 0)))
      (a!5 (* (* (exp 9 (+ it109 (- 1))) (exp it448 3)) (+ 0 (- 3))))
      (a!6 (* (* (+ 0 it447) (exp 9 (+ it109 (- 1)))) (+ 0 3))))
(let ((a!3 (+ (* a!1 (+ 0 (- 1)))
              (* (exp it448 5) (+ 0 (- 1)))
              (exp it448 3)
              a!2
              (* (+ 0 it447) (exp 9 (+ it109 (- 1))))))
      (a!7 (> (+ (* a!1 (+ 0 (- 4)))
                 (* (exp it448 5) (+ 0 (- 1)))
                 (exp it448 3)
                 a!5
                 a!6)
              (+ 0 0))))
  (and (> it446 0)
       (> a!3 (+ 0 0))
       (>= (+ (* it443 (- 1)) 3) 0)
       (>= (+ it443 (- 3)) 0)
       a!4
       (> (* it446 2) 0)
       a!7
       (>= (+ it109 (- 1)) 0)))))
(check-sat)
